RC101
VEHICLE
NUMBER     CAPACITY
2          100
CUSTOMER
CUST NO.  XCOORD.   YCOORD.    DEMAND   READY TIME  DUE DATE   SERVICE TIME
0         50        50         0        0           480        0
1         60        60         10       0           480        10
2         55        65         20       0           480        10
3         55        55         30       0           480        10
4         60        55         10       0           480        10
5         50        60         20       0           480        10
